17
6 10 5 8 0 7 14 11 4 12 8 1 1 4 7 13 5 11 4 10 13 14 2 11 9 7 10 14 16 0 1 1 3 4 8 14 6 16 13 11 14 3 13 9 2 2 16 2 12 6 6 3 7 3 5 12 12 3 9 11 5 13 13 15 12 5 15 2 8 2 5 6 12 0 3 6 15 10 7 16 13 6 13 9 3 15 10 1 14 15 1 0 0 8 5 16 5 2 12 13